; benchmark generated from python API
(set-info :status unknown)
(declare-fun x4 () Real)
(declare-fun x3 () Real)
(declare-fun bool.b23 () Bool)
(declare-fun bool.b22 () Bool)
(declare-fun bool.b21 () Bool)
(declare-fun bool.b19 () Bool)
(declare-fun bool.b17 () Bool)
(declare-fun bool.b18 () Bool)
(declare-fun bool.b20 () Bool)
(assert
 (forall ((?lambda Real) )(let ((?x1804 (* 1.0 (+ x3 (* (- 1.0) ?lambda)))))
 (let (($x417 (<= ?x1804 0.0)))
 (let (($x21994 (and $x417 (not (<= (* 1.0 (+ x4 (* 20.0 ?lambda))) 4820.0)))))
 (let (($x10563 (not $x21994)))
 (let (($x320 (and (not (and (not bool.b17) (and bool.b18 $x10563))) (not (and bool.b17 $x10563)))))
 (let (($x23010 (not bool.b19)))
 (let (($x7678 (not (and (not (and $x23010 (not $x320))) (not (and bool.b19 $x10563))))))
 (let (($x32878 (not bool.b21)))
 (let (($x16796 (not (and (not (and $x32878 $x7678)) (not (and bool.b21 $x10563))))))
 (let (($x6784 (not bool.b22)))
 (let (($x23434 (not (and (not (and $x6784 $x16796)) (not (and bool.b22 $x10563))))))
 (let (($x24325 (not bool.b23)))
 (let (($x1559 (and bool.b20 (not (and (not (and $x24325 $x23434)) (not (and bool.b23 $x10563)))))))
 (let (($x87 (not (and (not bool.b17) (not bool.b18)))))
 (let (($x7505 (<= (* 1.0 (+ x4 (* 20.0 ?lambda))) 4820.0)))
 (let (($x18923 (and (not (and bool.b18 $x10563)) (not (and (not bool.b18) (not $x417))))))
 (let (($x23076 (not bool.b17)))
 (let (($x39089 (and $x23076 (and (not (and (not bool.b18) $x21994)) (not (and bool.b18 $x417))))))
 (let (($x12343 (not (and $x23010 (not (and (not $x39089) (not (and bool.b17 (not $x18923)))))))))
 (let (($x10810 (and $x12343 (not (and bool.b19 (not (and $x417 (not (and $x7505 $x87)))))))))
 (let (($x15185 (and $x6784 (not (and (not (and $x32878 (not $x10810))) (not (and bool.b21 $x7678)))))))
 (let (($x8608 (and (not (and $x24325 (not (and (not $x15185) (not (and bool.b22 $x16796)))))) (not (and bool.b23 $x23434)))))
 (let (($x3478 (not bool.b20)))
 (let (($x6146 (not (<= (+ ?x1804 (* (/ 1.0 20.0) (+ x4 (* 20.0 ?lambda)))) 241.0))))
 (let (($x17324 (and (<= (+ ?x1804 (* (/ 1.0 20.0) (+ x4 (* 20.0 ?lambda)))) 400.0) (and $x6146 (and (not (and $x3478 (not $x8608))) (not $x1559))))))
 (let (($x13968 (exists ((?lambdaprime Real) )(! (let (($x5872 (not (and bool.b20 (<= (* 1.0 (+ x3 (* (- 1.0) ?lambdaprime))) 0.0)))))
 (let (($x25737 (not (<= (* 1.0 (+ x3 (* (- 1.0) ?lambdaprime))) 33.0))))
 (let (($x6045 (and $x25737 (not (<= (* (- 1.0) (+ x4 (* 20.0 ?lambdaprime))) (- 4910.0))))))
 (let (($x4760 (and $x25737 (not (<= (* (- 1.0) (+ x4 (* 20.0 ?lambdaprime))) (- 4500.0))))))
 (let (($x10154 (and (not (<= (* (- 1.0) (+ x4 (* 20.0 ?lambdaprime))) (- 4100.0))) $x25737)))
 (let (($x1573 (and (not (and bool.b17 (not $x10154))) (not (and bool.b18 (not $x4760))))))
 (and (and (<= 0.0 ?lambdaprime) (<= ?lambdaprime ?lambda)) (not (and (and $x1573 (not (and bool.b19 (not $x6045)))) $x5872))))))))) :qid k!24))
 ))
 (or (or $x13968 (< ?lambda 0.0)) (not $x17324)))))))))))))))))))))))))))))
 )
(check-sat)
